Results/Experiment 1 Results/Existing Benchmark/RES_100/i-100-100-19.txt
solutions: 0 nodes: 3  modelTime: 128  solveTime: 32  totalTime: 171  modelSize: 8381  readTime: 11 matchingSize: 0
