Results/Experiment 2 Results/Existing Benchmark/i-100-100-19.lp
clingo version 5.4.0
Reading from tempSRTISolver.lp ...
Solving...
UNSATISFIABLE

Models       : 0
Calls        : 1
Time         : 93.083s (Solving: 13.13s 1st Model: 0.00s Unsat: 13.13s)
CPU Time     : 93.068s
